c leafs=68, vars=17, seed=1, tickle=1, pretickle_path=1
p cnf 859 2323                                                                
e 18 19 20 21 22 23 24 25 26 27 28 29 30 31 32 33 34 35 36 37 38 39 40 41 42 43 44 45 46 47 48 49 50 51 52 53 54 55 56 57 58 59 60 61 62 63 64 65 66 67 68 69 70 71 72 73 74 75 76 77 78 79 80 81 82 83 84 85  0
a 1 2 3 4 5 6 7 8 9 10 11 12 13 14 15 16 17  0
e 86 87 88 89 90 91 92 93 94 95 96 97 98 99 100 101 102 103 104 105 106 107 108 109 110 111 112 113 114 115 116 117 118 119 120 121 122 123 124 125 126 127 128 129 130 131 132 133 134 135 136 137 138 139 140 141 142 143 144 145 146 147 148 149 150 151 152 153 154 155 156 157 158 159 160 161 162 163 164 165 166 167 168 169 170 171 172 173 174 175 176 177 178 179 180 181 182 183 184 185 186 187 188 189 190 191 192 193 194 195 196 197 198 199 200 201 202 203 204 205 206 207 208 209 210 211 212 213 214 215 216 217 218 219 220 221 222 223 224 225 226 227 228 229 230 231 232 233 234 235 236 237 238 239 240 241 242 243 244 245 246 247 248 249 250 251 252 253 254 255 256 257 258 259 260 261 262 263 264 265 266 267 268 269 270 271 272 273 274 275 276 277 278 279 280 281 282 283 284 285 286 287 288 289 290 291 292 293 294 295 296 297 298 299 300 301 302 303 304 305 306 307 308 309 310 311 312 313 314 315 316 317 318 319 320 321 322 323 324 325 326 327 328 329 330 331 332 333 334 335 336 337 338 339 340 341 342 343 344 345 346 347 348 349 350 351 352 353 354 355 356 357 358 359 360 361 362 363 364 365 366 367 368 369 370 371 372 373 374 375 376 377 378 379 380 381 382 383 384 385 386 387 388 389 390 391 392 393 394 395 396 397 398 399 400 401 402 403 404 405 406 407 408 409 410 411 412 413 414 415 416 417 418 419 420 421 422 423 424 425 426 427 428 429 430 431 432 433 434 435 436 437 438 439 440 441 442 443 444 445 446 447 448 449 450 451 452 453 454 455 456 457 458 459 460 461 462 463 464 465 466 467 468 469 470 471 472 473 474 475 476 477 478 479 480 481 482 483 484 485 486 487 488 489 490 491 492 493 494 495 496 497 498 499 500 501 502 503 504 505 506 507 508 509 510 511 512 513 514 515 516 517 518 519 520 521 522 523 524 525 526 527 528 529 530 531 532 533 534 535 536 537 538 539 540 541 542 543 544 545 546 547 548 549 550 551 552 553 554 555 556 557 558 559 560 561 562 563 564 565 566 567 568 569 570 571 572 573 574 575 576 577 578 579 580 581 582 583 584 585 586 587 588 589 590 591 592 593 594 595 596 597 598 599 600 601 602 603 604 605 606 607 608 609 610 611 612 613 614 615 616 617 618 619 620 621 622 623 624 625 626 627 628 629 630 631 632 633 634 635 636 637 638 639 640 641 642 643 644 645 646 647 648 649 650 651 652 653 654 655 656 657 658 659 660 661 662 663 664 665 666 667 668 669 670 671 672 673 674 675 676 677 678 679 680 681 682 683 684 685 686 687 688 689 690 691 692 693 694 695 696 697 698 699 700 701 702 703 704 705 706 707 708 709 710 711 712 713 714 715 716 717 718 719 720 721 722 723 724 725 726 727 728 729 730 731 732 733 734 735 736 737 738 739 740 741 742 743 744 745 746 747 748 749 750 751 752 753 754 755 756 757 758 759 760 761 762 763 764 765 766 767 768 769 770 771 772 773 774 775 776 777 778 779 780 781 782 783 784 785 786 787 788 789 790 791 792 793 794 795 796 797 798 799 800 801 802 803 804 805 806 807 808 809 810 811 812 813 814 815 816 817 818 819 820 821 822 823 824 825 826 827 828 829 830 831 832 833 834 835 836 837 838 839 840 841 842 843 844 845 846 847 848 849 850 851 852 853 854 855 856 857 858 859  0
859  0
-86 -11 43  0
86 11  0
86 -43  0
-87 -43 3  0
87 43  0
87 -3  0
-88 17 42  0
88 -17  0
88 -42  0
-89 -42 12  0
89 42  0
89 -12  0
-90 -40 -13  0
90 40  0
90 13  0
-91 8 40  0
91 -8  0
91 -40  0
-92 -41 15  0
92 41  0
92 -15  0
-93 14 41  0
93 -14  0
93 -41  0
94 -15 -39  0
-94 15  0
-94 39  0
95 39 -9  0
-95 -39  0
-95 9  0
96 38 -13  0
-96 -38  0
-96 13  0
97 -7 -38  0
-97 7  0
-97 38  0
98 16 -37  0
-98 -16  0
-98 37  0
99 37 12  0
-99 -37  0
-99 -12  0
-100 -11 36  0
100 11  0
100 -36  0
-101 -36 14  0
101 36  0
101 -14  0
-102 -35 -17  0
102 35  0
102 17  0
-103 -5 35  0
103 5  0
103 -35  0
104 -16 -49  0
-104 16  0
-104 49  0
105 49 14  0
-105 -49  0
-105 -14  0
106 48 5  0
-106 -48  0
-106 -5  0
107 -4 -48  0
-107 4  0
-107 48  0
108 51 -12  0
-108 -51  0
-108 12  0
109 1 -51  0
-109 -1  0
-109 51  0
110 50 10  0
-110 -50  0
-110 -10  0
111 14 -50  0
-111 -14  0
-111 50  0
112 47 2  0
-112 -47  0
-112 -2  0
113 -15 -47  0
-113 15  0
-113 47  0
114 -7 -46  0
-114 7  0
-114 46  0
115 46 16  0
-115 -46  0
-115 -16  0
-116 -11 44  0
116 11  0
116 -44  0
-117 -44 16  0
117 44  0
117 -16  0
-118 -9 45  0
118 9  0
118 -45  0
-119 -45 12  0
119 45  0
119 -12  0
120 3 -29  0
-120 -3  0
-120 29  0
121 29 -15  0
-121 -29  0
-121 15  0
122 30 -6  0
-122 -30  0
-122 6  0
123 16 -30  0
-123 -16  0
-123 30  0
124 7 -27  0
-124 -7  0
-124 27  0
125 27 4  0
-125 -27  0
-125 -4  0
126 17 -28  0
-126 -17  0
-126 28  0
127 28 2  0
-127 -28  0
-127 -2  0
-128 -32 9  0
128 32  0
128 -9  0
-129 7 32  0
129 -7  0
129 -32  0
-130 -11 31  0
130 11  0
130 -31  0
-131 -31 10  0
131 31  0
131 -10  0
132 34 -5  0
-132 -34  0
-132 5  0
133 -10 -34  0
-133 10  0
-133 34  0
134 33 15  0
-134 -33  0
-134 -15  0
135 -6 -33  0
-135 6  0
-135 33  0
136 13 -18  0
-136 -13  0
-136 18  0
137 18 -6  0
-137 -18  0
-137 6  0
138 19 -11  0
-138 -19  0
-138 11  0
139 -8 -19  0
-139 8  0
-139 19  0
-140 -21 -9  0
140 21  0
140 9  0
-141 -14 21  0
141 14  0
141 -21  0
-142 -20 10  0
142 20  0
142 -10  0
-143 -4 20  0
143 4  0
143 -20  0
-144 -26 -12  0
144 26  0
144 12  0
-145 6 26  0
145 -6  0
145 -26  0
-146 -25 -15  0
146 25  0
146 15  0
-147 17 25  0
147 -17  0
147 -25  0
-148 8 24  0
148 -8  0
148 -24  0
-149 -24 7  0
149 24  0
149 -7  0
150 16 -23  0
-150 -16  0
-150 23  0
151 23 10  0
-151 -23  0
-151 -10  0
152 12 -22  0
-152 -12  0
-152 22  0
153 22 4  0
-153 -22  0
-153 -4  0
154 60 8  0
-154 -60  0
-154 -8  0
155 5 -60  0
-155 -5  0
-155 60  0
156 -6 -61  0
-156 6  0
-156 61  0
157 61 16  0
-157 -61  0
-157 -16  0
158 -7 -63  0
-158 7  0
-158 63  0
159 63 13  0
-159 -63  0
-159 -13  0
160 64 17  0
-160 -64  0
-160 -17  0
161 -1 -64  0
-161 1  0
-161 64  0
162 12 -62  0
-162 -12  0
-162 62  0
163 62 14  0
-163 -62  0
-163 -14  0
164 8 -65  0
-164 -8  0
-164 65  0
165 65 -6  0
-165 -65  0
-165 6  0
166 66 -13  0
-166 -66  0
-166 13  0
167 -8 -66  0
-167 8  0
-167 66  0
-168 14 68  0
168 -14  0
168 -68  0
-169 -68 -8  0
169 68  0
169 8  0
-170 -67 -15  0
170 67  0
170 15  0
-171 10 67  0
171 -10  0
171 -67  0
172 -16 -53  0
-172 16  0
-172 53  0
173 53 15  0
-173 -53  0
-173 -15  0
174 -11 -52  0
-174 11  0
-174 52  0
175 52 -1  0
-175 -52  0
-175 1  0
176 54 -2  0
-176 -54  0
-176 2  0
177 8 -54  0
-177 -8  0
-177 54  0
178 55 -12  0
-178 -55  0
-178 12  0
179 14 -55  0
-179 -14  0
-179 55  0
-180 -9 58  0
180 9  0
180 -58  0
-181 -58 -14  0
181 58  0
181 14  0
-182 -5 59  0
182 5  0
182 -59  0
-183 -59 -16  0
183 59  0
183 16  0
-184 -57 -2  0
184 57  0
184 2  0
-185 -10 57  0
185 10  0
185 -57  0
-186 -11 56  0
186 11  0
186 -56  0
-187 -56 7  0
187 56  0
187 -7  0
188 -14 -85  0
-188 14  0
-188 85  0
189 85 -1  0
-189 -85  0
-189 1  0
190 84 -12  0
-190 -84  0
-190 12  0
191 6 -84  0
-191 -6  0
-191 84  0
-192 -82 3  0
192 82  0
192 -3  0
-193 13 82  0
193 -13  0
193 -82  0
-194 2 83  0
194 -2  0
194 -83  0
-195 -83 -17  0
195 83  0
195 17  0
-196 -81 15  0
196 81  0
196 -15  0
-197 6 81  0
197 -6  0
197 -81  0
198 -13 -78  0
-198 13  0
-198 78  0
199 78 -7  0
-199 -78  0
-199 7  0
200 77 -8  0
-200 -77  0
-200 8  0
201 -1 -77  0
-201 1  0
-201 77  0
202 -4 -79  0
-202 4  0
-202 79  0
203 79 9  0
-203 -79  0
-203 -9  0
204 15 -80  0
-204 -15  0
-204 80  0
205 80 -13  0
-205 -80  0
-205 13  0
206 -6 -74  0
-206 6  0
-206 74  0
207 74 -12  0
-207 -74  0
-207 12  0
208 73 2  0
-208 -73  0
-208 -2  0
209 11 -73  0
-209 -11  0
-209 73  0
210 -9 -76  0
-210 9  0
-210 76  0
211 76 -6  0
-211 -76  0
-211 6  0
212 2 -75  0
-212 -2  0
-212 75  0
213 75 16  0
-213 -75  0
-213 -16  0
214 -13 -69  0
-214 13  0
-214 69  0
215 69 6  0
-215 -69  0
-215 -6  0
216 -3 -70  0
-216 3  0
-216 70  0
217 70 6  0
-217 -70  0
-217 -6  0
218 -12 -71  0
-218 12  0
-218 71  0
219 71 5  0
-219 -71  0
-219 -5  0
220 72 1  0
-220 -72  0
-220 -1  0
221 -7 -72  0
-221 7  0
-221 72  0
222 -6 -11  0
-222 6  0
-222 11  0
223 11 6  0
-223 -11  0
-223 -6  0
224 -4 -16  0
-224 4  0
-224 16  0
225 16 4  0
-225 -16  0
-225 -4  0
226 -12 -17  0
-226 12  0
-226 17  0
227 12 -7  0
-227 -12  0
-227 7  0
228 7 -12  0
-228 -7  0
-228 12  0
-229 6 13  0
229 -6  0
229 -13  0
-230 -13 -6  0
230 13  0
230 6  0
231 7 -1  0
-231 -7  0
-231 1  0
232 1 -7  0
-232 -1  0
-232 7  0
233 -12 -14  0
-233 12  0
-233 14  0
234 14 12  0
-234 -14  0
-234 -12  0
235 15 3  0
-235 -15  0
-235 -3  0
236 -3 -15  0
-236 3  0
-236 15  0
237 15 2  0
-237 -15  0
-237 -2  0
238 16 -9  0
-238 -16  0
-238 9  0
239 9 -16  0
-239 -9  0
-239 16  0
240 -9 -16  0
-240 9  0
-240 16  0
241 16 9  0
-241 -16  0
-241 -9  0
242 -11 -12  0
-242 11  0
-242 12  0
243 12 11  0
-243 -12  0
-243 -11  0
244 12 -11  0
-244 -12  0
-244 11  0
245 11 -12  0
-245 -11  0
-245 12  0
-246 -12 14  0
246 12  0
246 -14  0
-247 -14 12  0
247 14  0
247 -12  0
-248 -3 15  0
248 3  0
248 -15  0
-249 -15 3  0
249 15  0
249 -3  0
-250 -15 2  0
250 15  0
250 -2  0
251 -2 -12  0
-251 2  0
-251 12  0
252 12 2  0
-252 -12  0
-252 -2  0
-253 -5 14  0
253 5  0
253 -14  0
-254 -14 5  0
254 14  0
254 -5  0
-255 -10 7  0
255 10  0
255 -7  0
-256 -7 10  0
256 7  0
256 -10  0
-257 -14 -5  0
257 14  0
257 5  0
-258 5 14  0
258 -5  0
258 -14  0
259 16 -5  0
-259 -16  0
-259 5  0
260 5 -16  0
-260 -5  0
-260 16  0
261 11 -5  0
-261 -11  0
-261 5  0
262 5 -11  0
-262 -5  0
-262 11  0
263 17 -3  0
-263 -17  0
-263 3  0
264 3 -17  0
-264 -3  0
-264 17  0
265 -3 -17  0
-265 3  0
-265 17  0
266 17 3  0
-266 -17  0
-266 -3  0
267 13 -15  0
-267 -13  0
-267 15  0
268 15 -13  0
-268 -15  0
-268 13  0
-269 13 15  0
269 -13  0
269 -15  0
-270 -15 -13  0
270 15  0
270 13  0
271 13 -12  0
-271 -13  0
-271 12  0
-272 -16 -3  0
272 16  0
272 3  0
-273 3 16  0
273 -3  0
273 -16  0
-274 5 6  0
274 -5  0
274 -6  0
-275 -6 -5  0
275 6  0
275 5  0
276 -86 -87  0
-276 86  0
-276 87  0
277 -88 -89  0
-277 88  0
-277 89  0
278 -90 -91  0
-278 90  0
-278 91  0
279 -92 -93  0
-279 92  0
-279 93  0
-280 94 95  0
280 -94  0
280 -95  0
-281 96 97  0
281 -96  0
281 -97  0
-282 98 99  0
282 -98  0
282 -99  0
283 -100 -101  0
-283 100  0
-283 101  0
284 -102 -103  0
-284 102  0
-284 103  0
-285 104 105  0
285 -104  0
285 -105  0
-286 106 107  0
286 -106  0
286 -107  0
-287 108 109  0
287 -108  0
287 -109  0
-288 110 111  0
288 -110  0
288 -111  0
-289 112 113  0
289 -112  0
289 -113  0
-290 114 115  0
290 -114  0
290 -115  0
291 -116 -117  0
-291 116  0
-291 117  0
292 -118 -119  0
-292 118  0
-292 119  0
-293 120 121  0
293 -120  0
293 -121  0
-294 122 123  0
294 -122  0
294 -123  0
-295 124 125  0
295 -124  0
295 -125  0
-296 126 127  0
296 -126  0
296 -127  0
297 -128 -129  0
-297 128  0
-297 129  0
298 -130 -131  0
-298 130  0
-298 131  0
-299 132 133  0
299 -132  0
299 -133  0
-300 134 135  0
300 -134  0
300 -135  0
-301 136 137  0
301 -136  0
301 -137  0
-302 138 139  0
302 -138  0
302 -139  0
303 -140 -141  0
-303 140  0
-303 141  0
304 -142 -143  0
-304 142  0
-304 143  0
305 -144 -145  0
-305 144  0
-305 145  0
306 -146 -147  0
-306 146  0
-306 147  0
307 -148 -149  0
-307 148  0
-307 149  0
-308 150 151  0
308 -150  0
308 -151  0
-309 152 153  0
309 -152  0
309 -153  0
-310 154 155  0
310 -154  0
310 -155  0
-311 156 157  0
311 -156  0
311 -157  0
-312 158 159  0
312 -158  0
312 -159  0
-313 160 161  0
313 -160  0
313 -161  0
-314 162 163  0
314 -162  0
314 -163  0
-315 164 165  0
315 -164  0
315 -165  0
-316 166 167  0
316 -166  0
316 -167  0
317 -168 -169  0
-317 168  0
-317 169  0
318 -170 -171  0
-318 170  0
-318 171  0
-319 172 173  0
319 -172  0
319 -173  0
-320 174 175  0
320 -174  0
320 -175  0
-321 176 177  0
321 -176  0
321 -177  0
-322 178 179  0
322 -178  0
322 -179  0
323 -180 -181  0
-323 180  0
-323 181  0
324 -182 -183  0
-324 182  0
-324 183  0
325 -184 -185  0
-325 184  0
-325 185  0
326 -186 -187  0
-326 186  0
-326 187  0
-327 188 189  0
327 -188  0
327 -189  0
-328 190 191  0
328 -190  0
328 -191  0
329 -192 -193  0
-329 192  0
-329 193  0
330 -194 -195  0
-330 194  0
-330 195  0
331 -196 -197  0
-331 196  0
-331 197  0
-332 198 199  0
332 -198  0
332 -199  0
-333 200 201  0
333 -200  0
333 -201  0
-334 202 203  0
334 -202  0
334 -203  0
-335 204 205  0
335 -204  0
335 -205  0
-336 206 207  0
336 -206  0
336 -207  0
-337 208 209  0
337 -208  0
337 -209  0
-338 210 211  0
338 -210  0
338 -211  0
-339 212 213  0
339 -212  0
339 -213  0
-340 214 215  0
340 -214  0
340 -215  0
-341 216 217  0
341 -216  0
341 -217  0
-342 218 219  0
342 -218  0
342 -219  0
-343 220 221  0
343 -220  0
343 -221  0
-344 222 223  0
344 -222  0
344 -223  0
-345 224 225  0
345 -224  0
345 -225  0
-346 227 228  0
346 -227  0
346 -228  0
347 -229 -230  0
-347 229  0
-347 230  0
-348 231 232  0
348 -231  0
348 -232  0
-349 233 234  0
349 -233  0
349 -234  0
-350 235 236  0
350 -235  0
350 -236  0
-351 238 239  0
351 -238  0
351 -239  0
-352 240 241  0
352 -240  0
352 -241  0
-353 242 243  0
353 -242  0
353 -243  0
-354 244 245  0
354 -244  0
354 -245  0
355 -246 -247  0
-355 246  0
-355 247  0
356 -248 -249  0
-356 248  0
-356 249  0
-357 251 252  0
357 -251  0
357 -252  0
358 -253 -254  0
-358 253  0
-358 254  0
359 -255 -256  0
-359 255  0
-359 256  0
360 -257 -258  0
-360 257  0
-360 258  0
-361 259 260  0
361 -259  0
361 -260  0
-362 261 262  0
362 -261  0
362 -262  0
-363 263 264  0
363 -263  0
363 -264  0
-364 265 266  0
364 -265  0
364 -266  0
-365 267 268  0
365 -267  0
365 -268  0
366 -269 -270  0
-366 269  0
-366 270  0
-367 15 271  0
367 -15  0
367 -271  0
-368 -15 -271  0
368 15  0
368 271  0
369 -272 -273  0
-369 272  0
-369 273  0
370 -274 -275  0
-370 274  0
-370 275  0
371 -276 -277  0
-371 276  0
-371 277  0
372 277 276  0
-372 -277  0
-372 -276  0
373 -278 -279  0
-373 278  0
-373 279  0
374 278 279  0
-374 -278  0
-374 -279  0
-375 281 282  0
375 -281  0
375 -282  0
376 -283 -284  0
-376 283  0
-376 284  0
377 284 283  0
-377 -284  0
-377 -283  0
378 -285 -286  0
-378 285  0
-378 286  0
379 285 286  0
-379 -285  0
-379 -286  0
380 -287 -288  0
-380 287  0
-380 288  0
381 288 287  0
-381 -288  0
-381 -287  0
382 -289 -290  0
-382 289  0
-382 290  0
383 290 289  0
-383 -290  0
-383 -289  0
384 -291 -292  0
-384 291  0
-384 292  0
385 291 292  0
-385 -291  0
-385 -292  0
386 -293 -294  0
-386 293  0
-386 294  0
387 294 293  0
-387 -294  0
-387 -293  0
388 -295 -296  0
-388 295  0
-388 296  0
389 296 295  0
-389 -296  0
-389 -295  0
390 -297 -298  0
-390 297  0
-390 298  0
391 298 297  0
-391 -298  0
-391 -297  0
392 -299 -300  0
-392 299  0
-392 300  0
393 300 299  0
-393 -300  0
-393 -299  0
-394 301 302  0
394 -301  0
394 -302  0
-395 -302 -301  0
395 302  0
395 301  0
-396 303 304  0
396 -303  0
396 -304  0
-397 -304 -303  0
397 304  0
397 303  0
-398 306 307  0
398 -306  0
398 -307  0
-399 308 309  0
399 -308  0
399 -309  0
-400 -308 -309  0
400 308  0
400 309  0
-401 310 311  0
401 -310  0
401 -311  0
-402 -311 -310  0
402 311  0
402 310  0
403 -312 -313  0
-403 312  0
-403 313  0
-404 315 316  0
404 -315  0
404 -316  0
-405 -315 -316  0
405 315  0
405 316  0
-406 317 318  0
406 -317  0
406 -318  0
-407 -317 -318  0
407 317  0
407 318  0
-408 319 320  0
408 -319  0
408 -320  0
-409 -319 -320  0
409 319  0
409 320  0
-410 321 322  0
410 -321  0
410 -322  0
-411 -321 -322  0
411 321  0
411 322  0
-412 323 324  0
412 -323  0
412 -324  0
-413 -323 -324  0
413 323  0
413 324  0
-414 325 326  0
414 -325  0
414 -326  0
-415 -326 -325  0
415 326  0
415 325  0
-416 327 328  0
416 -327  0
416 -328  0
-417 -328 -327  0
417 328  0
417 327  0
418 -329 -330  0
-418 329  0
-418 330  0
-419 332 333  0
419 -332  0
419 -333  0
-420 -332 -333  0
420 332  0
420 333  0
-421 334 335  0
421 -334  0
421 -335  0
-422 -335 -334  0
422 335  0
422 334  0
423 -336 -337  0
-423 336  0
-423 337  0
424 336 337  0
-424 -336  0
-424 -337  0
425 -338 -339  0
-425 338  0
-425 339  0
426 338 339  0
-426 -338  0
-426 -339  0
427 -340 -341  0
-427 340  0
-427 341  0
428 340 341  0
-428 -340  0
-428 -341  0
429 -342 -343  0
-429 342  0
-429 343  0
430 342 343  0
-430 -342  0
-430 -343  0
-431 10 344  0
431 -10  0
431 -344  0
-432 -10 344  0
432 10  0
432 -344  0
433 17 -346  0
-433 -17  0
-433 346  0
-434 -15 348  0
434 15  0
434 -348  0
-435 15 348  0
435 -15  0
435 -348  0
436 -2 -350  0
-436 2  0
-436 350  0
-437 12 351  0
437 -12  0
437 -351  0
-438 -12 351  0
438 12  0
438 -351  0
439 -352 -353  0
-439 352  0
-439 353  0
440 12 -352  0
-440 -12  0
-440 352  0
441 -12 -352  0
-441 12  0
-441 352  0
-442 354 351  0
442 -354  0
442 -351  0
-443 -2 356  0
443 2  0
443 -356  0
-444 -7 358  0
444 7  0
444 -358  0
-445 7 358  0
445 -7  0
445 -358  0
446 -359 -360  0
-446 359  0
-446 360  0
447 1 -361  0
-447 -1  0
-447 361  0
448 -1 -361  0
-448 1  0
-448 361  0
-449 -13 363  0
449 13  0
449 -363  0
-450 13 363  0
450 -13  0
450 -363  0
451 -364 -365  0
-451 364  0
-451 365  0
452 -367 -368  0
-452 367  0
-452 368  0
453 7 -370  0
-453 -7  0
-453 370  0
454 -7 -370  0
-454 7  0
-454 370  0
-455 371 372  0
455 -371  0
455 -372  0
-456 373 374  0
456 -373  0
456 -374  0
457 -280 -375  0
-457 280  0
-457 375  0
458 280 375  0
-458 -280  0
-458 -375  0
-459 376 377  0
459 -376  0
459 -377  0
-460 378 379  0
460 -378  0
460 -379  0
-461 380 381  0
461 -380  0
461 -381  0
-462 382 383  0
462 -382  0
462 -383  0
-463 384 385  0
463 -384  0
463 -385  0
-464 386 387  0
464 -386  0
464 -387  0
-465 388 389  0
465 -388  0
465 -389  0
-466 390 391  0
466 -390  0
466 -391  0
-467 392 393  0
467 -392  0
467 -393  0
468 -394 -395  0
-468 394  0
-468 395  0
469 -396 -397  0
-469 396  0
-469 397  0
-470 305 398  0
470 -305  0
470 -398  0
-471 -398 -305  0
471 398  0
471 305  0
472 -399 -400  0
-472 399  0
-472 400  0
473 -401 -402  0
-473 401  0
-473 402  0
-474 403 314  0
474 -403  0
474 -314  0
-475 -403 -314  0
475 403  0
475 314  0
476 -404 -405  0
-476 404  0
-476 405  0
477 -406 -407  0
-477 406  0
-477 407  0
478 -408 -409  0
-478 408  0
-478 409  0
479 -410 -411  0
-479 410  0
-479 411  0
480 -412 -413  0
-480 412  0
-480 413  0
481 -414 -415  0
-481 414  0
-481 415  0
482 -416 -417  0
-482 416  0
-482 417  0
-483 418 331  0
483 -418  0
483 -331  0
-484 -331 -418  0
484 331  0
484 418  0
485 -419 -420  0
-485 419  0
-485 420  0
486 -421 -422  0
-486 421  0
-486 422  0
-487 423 424  0
487 -423  0
487 -424  0
-488 425 426  0
488 -425  0
488 -426  0
-489 427 428  0
489 -427  0
489 -428  0
-490 429 430  0
490 -429  0
490 -430  0
491 9 -431  0
-491 -9  0
-491 431  0
492 -9 -432  0
-492 9  0
-492 432  0
-493 226 433  0
493 -226  0
493 -433  0
494 4 -434  0
-494 -4  0
-494 434  0
495 -4 -435  0
-495 4  0
-495 435  0
-496 436 237  0
496 -436  0
496 -237  0
497 11 -437  0
-497 -11  0
-497 437  0
498 -11 -438  0
-498 11  0
-498 438  0
499 -13 -439  0
-499 13  0
-499 439  0
500 13 -439  0
-500 -13  0
-500 439  0
501 11 -440  0
-501 -11  0
-501 440  0
502 -11 -441  0
-502 11  0
-502 441  0
503 -13 -442  0
-503 13  0
-503 442  0
504 13 -442  0
-504 -13  0
-504 442  0
505 -443 -250  0
-505 443  0
-505 250  0
-506 -10 444  0
506 10  0
506 -444  0
-507 10 445  0
507 -10  0
507 -445  0
-508 -1 446  0
508 1  0
508 -446  0
-509 1 446  0
509 -1  0
509 -446  0
510 10 -447  0
-510 -10  0
-510 447  0
511 -10 -448  0
-511 10  0
-511 448  0
512 15 -449  0
-512 -15  0
-512 449  0
513 -15 -450  0
-513 15  0
-513 450  0
514 12 -451  0
-514 -12  0
-514 451  0
515 -13 -451  0
-515 13  0
-515 451  0
516 -12 -451  0
-516 12  0
-516 451  0
517 362 -451  0
-517 -362  0
-517 451  0
-518 11 452  0
518 -11  0
518 -452  0
-519 -11 452  0
519 11  0
519 -452  0
-520 11 453  0
520 -11  0
520 -453  0
-521 -11 454  0
521 11  0
521 -454  0
522 -455 -456  0
-522 455  0
-522 456  0
-523 457 458  0
523 -457  0
523 -458  0
524 -460 -461  0
-524 460  0
-524 461  0
-525 462 463  0
525 -462  0
525 -463  0
526 -464 -465  0
-526 464  0
-526 465  0
-527 466 467  0
527 -466  0
527 -467  0
528 -468 -469  0
-528 468  0
-528 469  0
529 -470 -471  0
-529 470  0
-529 471  0
530 -474 -475  0
-530 474  0
-530 475  0
531 -476 -477  0
-531 476  0
-531 477  0
-532 478 479  0
532 -478  0
532 -479  0
533 -480 -481  0
-533 480  0
-533 481  0
534 -483 -484  0
-534 483  0
-534 484  0
-535 485 486  0
535 -485  0
535 -486  0
-536 487 488  0
536 -487  0
536 -488  0
537 -489 -490  0
-537 489  0
-537 490  0
-538 491 492  0
538 -491  0
538 -492  0
539 -6 -493  0
-539 6  0
-539 493  0
540 6 -493  0
-540 -6  0
-540 493  0
-541 494 495  0
541 -494  0
541 -495  0
-542 349 496  0
542 -349  0
542 -496  0
-543 497 498  0
543 -497  0
543 -498  0
-544 501 502  0
544 -501  0
544 -502  0
-545 355 505  0
545 -355  0
545 -505  0
546 -506 -507  0
-546 506  0
-546 507  0
-547 510 511  0
547 -510  0
547 -511  0
-548 512 513  0
548 -512  0
548 -513  0
-549 -5 518  0
549 5  0
549 -518  0
-550 5 519  0
550 -5  0
550 -519  0
551 -520 -521  0
-551 520  0
-551 521  0
-552 523 459  0
552 -523  0
552 -459  0
553 -524 -525  0
-553 524  0
-553 525  0
554 525 524  0
-554 -525  0
-554 -524  0
555 -526 -527  0
-555 526  0
-555 527  0
556 526 527  0
-556 -526  0
-556 -527  0
-557 529 472  0
557 -529  0
557 -472  0
-558 473 530  0
558 -473  0
558 -530  0
559 -532 -533  0
-559 532  0
-559 533  0
560 533 532  0
-560 -533  0
-560 -532  0
561 -482 -534  0
-561 482  0
-561 534  0
562 -536 -537  0
-562 536  0
-562 537  0
563 536 537  0
-563 -536  0
-563 -537  0
564 5 -539  0
-564 -5  0
-564 539  0
565 -5 -540  0
-565 5  0
-565 540  0
566 -541 -542  0
-566 541  0
-566 542  0
567 542 541  0
-567 -542  0
-567 -541  0
568 13 -543  0
-568 -13  0
-568 543  0
569 -13 -543  0
-569 13  0
-569 543  0
570 7 -543  0
-570 -7  0
-570 543  0
571 -7 -543  0
-571 7  0
-571 543  0
572 13 -544  0
-572 -13  0
-572 544  0
573 -13 -544  0
-573 13  0
-573 544  0
574 7 -544  0
-574 -7  0
-574 544  0
575 -7 -544  0
-575 7  0
-575 544  0
576 541 -545  0
-576 -541  0
-576 545  0
577 -541 545  0
-577 541  0
-577 -545  0
-578 357 546  0
578 -357  0
578 -546  0
-579 1 546  0
579 -1  0
579 -546  0
-580 -1 546  0
580 1  0
580 -546  0
581 -12 -548  0
-581 12  0
-581 548  0
582 -13 -548  0
-582 13  0
-582 548  0
583 12 -548  0
-583 -12  0
-583 548  0
584 -549 -550  0
-584 549  0
-584 550  0
585 -522 -552  0
-585 522  0
-585 552  0
586 552 522  0
-586 -552  0
-586 -522  0
-587 553 554  0
587 -553  0
587 -554  0
-588 555 556  0
588 -555  0
588 -556  0
589 -528 -557  0
-589 528  0
-589 557  0
590 557 528  0
-590 -557  0
-590 -528  0
591 -558 -531  0
-591 558  0
-591 531  0
592 531 558  0
-592 -531  0
-592 -558  0
-593 559 560  0
593 -559  0
593 -560  0
594 -561 -535  0
-594 561  0
-594 535  0
595 535 561  0
-595 -535  0
-595 -561  0
-596 562 563  0
596 -562  0
596 -563  0
-597 564 565  0
597 -564  0
597 -565  0
-598 566 567  0
598 -566  0
598 -567  0
-599 568 499  0
599 -568  0
599 -499  0
-600 500 569  0
600 -500  0
600 -569  0
-601 572 503  0
601 -572  0
601 -503  0
-602 504 573  0
602 -504  0
602 -573  0
-603 576 577  0
603 -576  0
603 -577  0
604 -508 -579  0
-604 508  0
-604 579  0
605 -509 -580  0
-605 509  0
-605 580  0
-606 581 514  0
606 -581  0
606 -514  0
-607 583 516  0
607 -583  0
607 -516  0
-608 585 586  0
608 -585  0
608 -586  0
-609 589 590  0
609 -589  0
609 -590  0
-610 591 592  0
610 -591  0
610 -592  0
-611 594 595  0
611 -594  0
611 -595  0
612 -3 -599  0
-612 3  0
-612 599  0
613 3 -600  0
-613 -3  0
-613 600  0
614 -3 -601  0
-614 3  0
-614 601  0
615 3 -602  0
-615 -3  0
-615 602  0
-616 -15 604  0
616 15  0
616 -604  0
-617 15 605  0
617 -15  0
617 -605  0
618 13 -606  0
-618 -13  0
-618 606  0
619 13 -607  0
-619 -13  0
-619 607  0
-620 608 587  0
620 -608  0
620 -587  0
621 -588 -609  0
-621 588  0
-621 609  0
622 -610 -593  0
-622 610  0
-622 593  0
-623 611 596  0
623 -611  0
623 -596  0
-624 612 613  0
624 -612  0
624 -613  0
-625 614 615  0
625 -614  0
625 -615  0
626 -616 -617  0
-626 616  0
-626 617  0
-627 618 515  0
627 -618  0
627 -515  0
-628 582 619  0
628 -582  0
628 -619  0
629 -620 -621  0
-629 620  0
-629 621  0
630 621 620  0
-630 -621  0
-630 -620  0
631 -622 -623  0
-631 622  0
-631 623  0
632 622 623  0
-632 -622  0
-632 -623  0
633 -7 -624  0
-633 7  0
-633 624  0
634 7 -624  0
-634 -7  0
-634 624  0
635 -7 -625  0
-635 7  0
-635 625  0
636 7 -625  0
-636 -7  0
-636 625  0
-637 -357 626  0
637 357  0
637 -626  0
638 -15 -627  0
-638 15  0
-638 627  0
639 15 -628  0
-639 -15  0
-639 628  0
-640 629 630  0
640 -629  0
640 -630  0
-641 631 632  0
641 -631  0
641 -632  0
-642 633 570  0
642 -633  0
642 -570  0
-643 571 634  0
643 -571  0
643 -634  0
-644 635 574  0
644 -635  0
644 -574  0
-645 575 636  0
645 -575  0
645 -636  0
646 -578 -637  0
-646 578  0
-646 637  0
-647 638 639  0
647 -638  0
647 -639  0
-648 640 641  0
648 -640  0
648 -641  0
649 5 -642  0
-649 -5  0
-649 642  0
650 -5 -643  0
-650 5  0
-650 643  0
651 5 -644  0
-651 -5  0
-651 644  0
652 -5 -645  0
-652 5  0
-652 645  0
653 -362 -647  0
-653 362  0
-653 647  0
-654 649 650  0
654 -649  0
654 -650  0
-655 651 652  0
655 -651  0
655 -652  0
-656 653 517  0
656 -653  0
656 -517  0
657 -598 -654  0
-657 598  0
-657 654  0
-658 655 603  0
658 -655  0
658 -603  0
659 14 -657  0
-659 -14  0
-659 657  0
660 -14 657  0
-660 14  0
-660 -657  0
661 347 -658  0
-661 -347  0
-661 658  0
-662 -646 -657  0
662 646  0
662 657  0
-663 -646 -658  0
663 646  0
663 658  0
-664 -14 658  0
664 14  0
664 -658  0
-665 14 -658  0
665 -14  0
665 658  0
-666 347 -657  0
666 -347  0
666 657  0
-667 659 660  0
667 -659  0
667 -660  0
668 -664 -665  0
-668 664  0
-668 665  0
669 15 -667  0
-669 -15  0
-669 667  0
670 -15 667  0
-670 15  0
-670 -667  0
-671 15 668  0
671 -15  0
671 -668  0
-672 -15 -668  0
672 15  0
672 668  0
-673 669 670  0
673 -669  0
673 -670  0
674 -671 -672  0
-674 671  0
-674 672  0
675 -347 -673  0
-675 347  0
-675 673  0
-676 -347 674  0
676 347  0
676 -674  0
-677 675 661  0
677 -675  0
677 -661  0
678 -676 -666  0
-678 676  0
-678 666  0
-679 597 677  0
679 -597  0
679 -677  0
-680 -597 -677  0
680 597  0
680 677  0
-681 -597 678  0
681 597  0
681 -678  0
-682 -678 597  0
682 678  0
682 -597  0
683 -679 -680  0
-683 679  0
-683 680  0
684 -681 -682  0
-684 681  0
-684 682  0
-685 683 646  0
685 -683  0
685 -646  0
-686 684 646  0
686 -684  0
686 -646  0
687 -685 -662  0
-687 685  0
-687 662  0
688 -663 -686  0
-688 663  0
-688 686  0
689 -15 -687  0
-689 15  0
-689 687  0
690 15 -687  0
-690 -15  0
-690 687  0
-691 687 -354  0
691 -687  0
691 354  0
-692 687 -656  0
692 -687  0
692 656  0
-693 688 -656  0
693 -688  0
693 656  0
-694 -15 688  0
694 15  0
694 -688  0
-695 15 688  0
695 -15  0
695 -688  0
-696 688 -354  0
696 -688  0
696 354  0
-697 7 689  0
697 -7  0
697 -689  0
-698 -7 690  0
698 7  0
698 -690  0
-699 -7 689  0
699 7  0
699 -689  0
-700 7 690  0
700 -7  0
700 -690  0
-701 7 694  0
701 -7  0
701 -694  0
-702 -7 695  0
702 7  0
702 -695  0
-703 7 695  0
703 -7  0
703 -695  0
-704 -7 694  0
704 7  0
704 -694  0
705 -697 -698  0
-705 697  0
-705 698  0
706 -699 -700  0
-706 699  0
-706 700  0
707 -701 -702  0
-707 701  0
-707 702  0
708 -703 -704  0
-708 703  0
-708 704  0
709 -705 354  0
-709 705  0
-709 -354  0
-710 354 706  0
710 -354  0
710 -706  0
-711 707 -353  0
711 -707  0
711 353  0
-712 354 708  0
712 -354  0
712 -708  0
-713 709 547  0
713 -709  0
713 -547  0
714 -691 -710  0
-714 691  0
-714 710  0
-715 709 -547  0
715 -709  0
715 547  0
-716 547 711  0
716 -547  0
716 -711  0
717 -712 -696  0
-717 712  0
-717 696  0
-718 711 -547  0
718 -711  0
718 547  0
-719 714 -547  0
719 -714  0
719 547  0
-720 714 547  0
720 -714  0
720 -547  0
-721 717 -547  0
721 -717  0
721 547  0
-722 547 717  0
722 -547  0
722 -717  0
723 -713 -719  0
-723 713  0
-723 719  0
724 -720 -715  0
-724 720  0
-724 715  0
725 -716 -721  0
-725 716  0
-725 721  0
726 -722 -718  0
-726 722  0
-726 718  0
-727 723 656  0
727 -723  0
727 -656  0
728 3 -724  0
-728 -3  0
-728 724  0
729 -3 -724  0
-729 3  0
-729 724  0
-730 724 366  0
730 -724  0
730 -366  0
-731 725 656  0
731 -725  0
731 -656  0
-732 366 726  0
732 -366  0
732 -726  0
-733 3 726  0
733 -3  0
733 -726  0
-734 -3 726  0
734 3  0
734 -726  0
735 -727 -692  0
-735 727  0
-735 692  0
-736 17 728  0
736 -17  0
736 -728  0
-737 -17 729  0
737 17  0
737 -729  0
-738 -17 728  0
738 17  0
738 -728  0
-739 17 729  0
739 -17  0
739 -729  0
740 -693 -731  0
-740 693  0
-740 731  0
-741 -17 733  0
741 17  0
741 -733  0
-742 17 734  0
742 -17  0
742 -734  0
-743 17 733  0
743 -17  0
743 -733  0
-744 -17 734  0
744 17  0
744 -734  0
-745 -4 735  0
745 4  0
745 -735  0
746 -736 -737  0
-746 736  0
-746 737  0
747 -738 -739  0
-747 738  0
-747 739  0
-748 4 735  0
748 -4  0
748 -735  0
-749 735 -369  0
749 -735  0
749 369  0
-750 17 735  0
750 -17  0
750 -735  0
-751 -8 735  0
751 8  0
751 -735  0
-752 -17 735  0
752 17  0
752 -735  0
-753 345 735  0
753 -345  0
753 -735  0
-754 740 345  0
754 -740  0
754 -345  0
-755 -8 740  0
755 8  0
755 -740  0
-756 -17 740  0
756 17  0
756 -740  0
-757 -4 740  0
757 4  0
757 -740  0
758 -741 -742  0
-758 741  0
-758 742  0
759 -743 -744  0
-759 743  0
-759 744  0
-760 4 740  0
760 -4  0
760 -740  0
-761 740 -369  0
761 -740  0
761 369  0
-762 17 740  0
762 -17  0
762 -740  0
763 -366 -746  0
-763 366  0
-763 746  0
-764 -366 747  0
764 366  0
764 -747  0
-765 758 -366  0
765 -758  0
765 366  0
-766 -365 759  0
766 365  0
766 -759  0
-767 763 584  0
767 -763  0
767 -584  0
768 -730 -764  0
-768 730  0
-768 764  0
769 -732 -765  0
-769 732  0
-769 765  0
-770 766 584  0
770 -766  0
770 -584  0
-771 768 -584  0
771 -768  0
771 584  0
-772 769 -584  0
772 -769  0
772 584  0
773 -767 -771  0
-773 767  0
-773 771  0
774 -772 -770  0
-774 772  0
-774 770  0
-775 4 773  0
775 -4  0
775 -773  0
-776 -4 773  0
776 4  0
776 -773  0
-777 773 -369  0
777 -773  0
777 369  0
-778 4 774  0
778 -4  0
778 -774  0
-779 -4 774  0
779 4  0
779 -774  0
-780 -369 774  0
780 369  0
780 -774  0
781 -745 -775  0
-781 745  0
-781 775  0
782 -776 -748  0
-782 776  0
-782 748  0
783 -757 -778  0
-783 757  0
-783 778  0
784 -760 -779  0
-784 760  0
-784 779  0
-785 17 781  0
785 -17  0
785 -781  0
-786 -17 782  0
786 17  0
786 -782  0
-787 -17 781  0
787 17  0
787 -781  0
-788 17 782  0
788 -17  0
788 -782  0
-789 -17 783  0
789 17  0
789 -783  0
-790 17 784  0
790 -17  0
790 -784  0
-791 17 783  0
791 -17  0
791 -783  0
-792 -17 784  0
792 17  0
792 -784  0
793 -785 -786  0
-793 785  0
-793 786  0
794 -787 -788  0
-794 787  0
-794 788  0
795 -789 -790  0
-795 789  0
-795 790  0
796 -791 -792  0
-796 791  0
-796 792  0
-797 793 369  0
797 -793  0
797 -369  0
-798 369 794  0
798 -369  0
798 -794  0
-799 369 795  0
799 -369  0
799 -795  0
-800 796 369  0
800 -796  0
800 -369  0
801 -797 -749  0
-801 797  0
-801 749  0
802 -777 -798  0
-802 777  0
-802 798  0
803 -799 -780  0
-803 799  0
-803 780  0
804 -761 -800  0
-804 761  0
-804 800  0
-805 801 551  0
805 -801  0
805 -551  0
-806 802 -551  0
806 -802  0
806 551  0
-807 -551 803  0
807 551  0
807 -803  0
-808 804 551  0
808 -804  0
808 -551  0
809 -805 -806  0
-809 805  0
-809 806  0
810 -807 -808  0
-810 807  0
-810 808  0
-811 345 809  0
811 -345  0
811 -809  0
-812 -17 809  0
812 17  0
812 -809  0
-813 -8 809  0
813 8  0
813 -809  0
-814 17 809  0
814 -17  0
814 -809  0
-815 17 810  0
815 -17  0
815 -810  0
-816 -8 810  0
816 8  0
816 -810  0
-817 -17 810  0
817 17  0
817 -810  0
-818 345 810  0
818 -345  0
818 -810  0
819 -812 -750  0
-819 812  0
-819 750  0
820 -752 -814  0
-820 752  0
-820 814  0
821 -756 -815  0
-821 756  0
-821 815  0
822 -817 -762  0
-822 817  0
-822 762  0
-823 8 819  0
823 -8  0
823 -819  0
-824 8 820  0
824 -8  0
824 -820  0
-825 8 821  0
825 -8  0
825 -821  0
-826 8 822  0
826 -8  0
826 -822  0
827 -823 -813  0
-827 823  0
-827 813  0
828 -751 -824  0
-828 751  0
-828 824  0
829 -755 -825  0
-829 755  0
-829 825  0
830 -816 -826  0
-830 816  0
-830 826  0
-831 6 827  0
831 -6  0
831 -827  0
-832 -6 828  0
832 6  0
832 -828  0
-833 -6 827  0
833 6  0
833 -827  0
-834 6 828  0
834 -6  0
834 -828  0
-835 6 829  0
835 -6  0
835 -829  0
-836 -6 830  0
836 6  0
836 -830  0
-837 6 830  0
837 -6  0
837 -830  0
-838 -6 829  0
838 6  0
838 -829  0
839 -831 -832  0
-839 831  0
-839 832  0
840 -833 -834  0
-840 833  0
-840 834  0
841 -835 -836  0
-841 835  0
-841 836  0
842 -837 -838  0
-842 837  0
-842 838  0
-843 839 -345  0
843 -839  0
843 345  0
-844 840 -345  0
844 -840  0
844 345  0
-845 -345 841  0
845 345  0
845 -841  0
-846 -345 842  0
846 345  0
846 -842  0
847 -811 -843  0
-847 811  0
-847 843  0
848 -844 -753  0
-848 844  0
-848 753  0
849 -754 -845  0
-849 754  0
-849 845  0
850 -818 -846  0
-850 818  0
-850 846  0
-851 538 847  0
851 -538  0
851 -847  0
-852 848 -538  0
852 -848  0
852 538  0
-853 849 -538  0
853 -849  0
853 538  0
-854 850 538  0
854 -850  0
854 -538  0
855 -851 -852  0
-855 851  0
-855 852  0
856 -853 -854  0
-856 853  0
-856 854  0
-857 648 855  0
857 -648  0
857 -855  0
-858 856 -648  0
858 -856  0
858 648  0
859 -857 -858  0
-859 857  0
-859 858  0
